
Gurobi 11.0.1 (win64) logging started Mon Apr  1 12:41:21 2024

Set parameter LogFile to value "C:\Projetos\Job_Rotation_Algorithms\Outputs\GurobiLogs\gurobi_log-output-24_hes-c199-BorbaRittModel-NoExtraConstraint-2.log"
Gurobi Optimizer version 11.0.1 build v11.0.1rc0 (win64 - Windows 10.0 (19045.2))

CPU model: 11th Gen Intel(R) Core(TM) i7-1165G7 @ 2.80GHz, instruction set [SSE2|AVX|AVX2|AVX512]
Thread count: 4 physical cores, 8 logical processors, using up to 1 threads


Gurobi 11.0.1 (win64) logging started Mon Apr  1 21:29:12 2024

Set parameter LogFile to value "C:\Projetos\Job_Rotation_Algorithms\Outputs\GurobiLogs\gurobi_log-output-24_hes-c199-BorbaRittModel-NoExtraConstraint-2.log"
Gurobi Optimizer version 11.0.1 build v11.0.1rc0 (win64 - Windows 10.0 (19045.2))

CPU model: 11th Gen Intel(R) Core(TM) i7-1165G7 @ 2.80GHz, instruction set [SSE2|AVX|AVX2|AVX512]
Thread count: 4 physical cores, 8 logical processors, using up to 1 threads


Gurobi 11.0.1 (win64) logging started Tue Apr  2 17:36:48 2024

Set parameter LogFile to value "C:\Projetos\Job_Rotation_Algorithms\Outputs\GurobiLogs\gurobi_log-output-24_hes-c199-BorbaRittModel-NoExtraConstraint-2.log"
Gurobi Optimizer version 11.0.1 build v11.0.1rc0 (win64 - Windows 10.0 (19045.2))

CPU model: 11th Gen Intel(R) Core(TM) i7-1165G7 @ 2.80GHz, instruction set [SSE2|AVX|AVX2|AVX512]
Thread count: 4 physical cores, 8 logical processors, using up to 1 threads

WLS license 2390832 - registered to Bitka Analytics
Optimize a model with 943 rows, 326 columns and 3032 nonzeros
Model fingerprint: 0xf2d9e21a
Variable types: 2 continuous, 324 integer (324 binary)
Coefficient statistics:
  Matrix range     [1e+00, 2e+02]
  Objective range  [1e+00, 1e+00]
  Bounds range     [1e+00, 4e+02]
  RHS range        [1e+00, 4e+02]
Presolve removed 1 rows and 1 columns
Presolve time: 0.00s
Presolved: 942 rows, 325 columns, 3030 nonzeros
Variable types: 0 continuous, 325 integer (324 binary)

Root relaxation: objective 5.600000e+01, 647 iterations, 0.02 seconds (0.02 work units)

    Nodes    |    Current Node    |     Objective Bounds      |     Work
 Expl Unexpl |  Obj  Depth IntInf | Incumbent    BestBd   Gap | It/Node Time

     0     0   56.00000    0   63          -   56.00000      -     -    0s
     0     0   56.00000    0  123          -   56.00000      -     -    0s
     0     0   56.00000    0   54          -   56.00000      -     -    0s
     0     0   56.00000    0  127          -   56.00000      -     -    0s
     0     0   56.00000    0  117          -   56.00000      -     -    0s
     0     0   56.00000    0  117          -   56.00000      -     -    0s
     0     0   56.00000    0   99          -   56.00000      -     -    0s
     0     0   56.00000    0  106          -   56.00000      -     -    0s
     0     0   56.00000    0  109          -   56.00000      -     -    0s
     0     0   56.00000    0  112          -   56.00000      -     -    0s
     0     0   56.00000    0   49          -   56.00000      -     -    0s
     0     0   56.00000    0   49          -   56.00000      -     -    0s
     0     2   56.00000    0   49          -   56.00000      -     -    0s
H  497   259                      51.0000000   56.00000  9.80%  49.7    1s
H 1048   352                      54.0000000   56.00000  3.70%  65.0    4s
H 1050   291                      55.0000000   56.00000  1.82%  64.8    4s
  1066   297   55.00000    9   95   55.00000   56.00000  1.82%  63.9    5s

Cutting planes:
  Flow cover: 2
  Zero half: 1
  RLT: 3
  BQP: 1

Explored 1119 nodes (86063 simplex iterations) in 5.65 seconds (5.52 work units)
Thread count was 1 (of 8 available processors)

Solution count 3: 55 54 51 

Optimal solution found (tolerance 1.00e-03)
Best objective 5.500000000000e+01, best bound 5.500000000000e+01, gap 0.0000%
